c uprop, v00.0, 
c reading from data/prog225.c.cnf
c done reading: 0.002391
p cnf 99 404
-50 -63 0
50 63 0
-55 -56 0
55 56 0
-58 -60 0
58 60 0
-52 -62 0
52 62 0
-59 -65 0
59 65 0
-67 -69 0
67 69 0
-50 53 0
50 -53 0
-48 50 -53 0
-48 -53 0
48 -50 53 0
48 53 0
47 -50 -55 0
47 -53 -55 0
47 -50 -53 0
-47 50 55 0
-47 53 55 0
-47 50 53 0
-46 -47 55 0
-46 -47 50 0
-46 -47 53 0
46 47 -55 0
46 47 -50 0
46 47 -53 0
46 -50 -53 -55 0
-46 50 53 55 0
45 -55 -58 0
45 -47 -58 0
45 -47 -55 0
-45 55 58 0
-45 47 58 0
-45 47 55 0
-44 -45 58 0
-44 -45 55 0
-44 -45 47 0
44 45 -58 0
44 45 -55 0
44 45 -47 0
44 -47 -55 -58 0
-44 47 55 58 0
43 -58 -62 0
43 -45 -62 0
43 -45 -58 0
-43 58 62 0
-43 45 62 0
-43 45 58 0
-42 -43 62 0
-42 -43 58 0
-42 -43 45 0
42 43 -62 0
42 43 -58 0
42 43 -45 0
42 -45 -58 -62 0
-42 45 58 62 0
41 -62 -65 0
41 -43 -65 0
41 -43 -62 0
-41 62 65 0
-41 43 65 0
-41 43 62 0
-40 -41 65 0
-40 -41 62 0
-40 -41 43 0
40 41 -65 0
40 41 -62 0
40 41 -43 0
40 -43 -62 -65 0
-40 43 62 65 0
39 -65 -69 0
39 -41 -69 0
39 -41 -65 0
-39 65 69 0
-39 41 69 0
-39 41 65 0
-38 -39 69 0
-38 -39 65 0
-38 -39 41 0
38 39 -69 0
38 39 -65 0
38 39 -41 0
38 -41 -65 -69 0
-38 41 65 69 0
-49 69 0
39 -49 0
-39 49 -69 0
-39 -51 -69 0
39 -51 69 0
39 51 -69 0
-39 51 69 0
-48 -66 0
48 66 0
-36 -46 0
36 46 0
-34 -44 0
34 44 0
-42 -70 0
42 70 0
-40 -72 0
40 72 0
-38 -74 0
38 74 0
-51 -75 0
51 75 0
-49 -76 0
49 76 0
-37 -77 0
-77 -79 0
37 77 79 0
37 79 -80 0
-37 -79 -80 0
-37 79 80 0
37 -79 80 0
77 -81 0
-35 -81 0
35 -77 81 0
35 -77 -82 0
-35 77 -82 0
35 77 82 0
-35 -77 82 0
81 -83 0
-83 -85 0
-81 83 85 0
-81 85 -86 0
81 -85 -86 0
81 85 86 0
-81 -85 86 0
83 -87 0
-71 -87 0
71 -83 87 0
71 -83 -88 0
-71 83 -88 0
71 83 88 0
-71 -83 88 0
87 -89 0
-89 -91 0
-87 89 91 0
-87 91 -92 0
87 -91 -92 0
87 91 92 0
-87 -91 92 0
89 -93 0
-73 -93 0
73 -89 93 0
73 -89 -94 0
-73 89 -94 0
73 89 94 0
-73 -89 94 0
93 -95 0
-95 -97 0
-93 95 97 0
-93 97 -98 0
93 -97 -98 0
93 97 98 0
-93 -97 98 0
-64 79 0
37 -64 0
-37 64 -79 0
-37 -79 -99 0
37 79 -99 0
37 -79 99 0
-37 79 99 0
-35 57 -79 0
-35 57 -64 0
57 -64 -79 0
35 -57 79 0
35 -57 64 0
-57 64 79 0
-33 35 -57 0
-33 -57 79 0
-33 -57 64 0
33 -35 57 0
33 57 -79 0
33 57 -64 0
33 -35 -64 -79 0
-33 35 64 79 0
32 -35 -85 0
32 -57 -85 0
32 -35 -57 0
-32 35 85 0
-32 57 85 0
-32 35 57 0
-31 -32 85 0
-31 -32 35 0
-31 -32 57 0
31 32 -85 0
31 32 -35 0
31 32 -57 0
31 -35 -57 -85 0
-31 35 57 85 0
30 -71 -85 0
30 -32 -71 0
30 -32 -85 0
-30 71 85 0
-30 32 71 0
-30 32 85 0
-29 -30 71 0
-29 -30 85 0
-29 -30 32 0
29 30 -71 0
29 30 -85 0
29 30 -32 0
29 -32 -71 -85 0
-29 32 71 85 0
28 -71 -91 0
28 -30 -91 0
28 -30 -71 0
-28 71 91 0
-28 30 91 0
-28 30 71 0
-27 -28 91 0
-27 -28 71 0
-27 -28 30 0
27 28 -91 0
27 28 -71 0
27 28 -30 0
27 -30 -71 -91 0
-27 30 71 91 0
26 -73 -91 0
26 -28 -73 0
26 -28 -91 0
-26 73 91 0
-26 28 73 0
-26 28 91 0
-25 -26 73 0
-25 -26 91 0
-25 -26 28 0
25 26 -73 0
25 26 -91 0
25 26 -28 0
25 -28 -73 -91 0
-25 28 73 91 0
24 -73 -97 0
24 -26 -97 0
24 -26 -73 0
-24 73 97 0
-24 26 97 0
-24 26 73 0
-23 -24 97 0
-23 -24 73 0
-23 -24 26 0
23 24 -97 0
23 24 -73 0
23 24 -26 0
23 -26 -73 -97 0
-23 26 73 97 0
-22 97 0
-22 24 0
22 -24 -97 0
-21 -24 -97 0
-21 24 97 0
21 24 -97 0
21 -24 97 0
-20 -37 0
-20 -99 0
20 37 99 0
-19 37 99 0
-19 -37 -99 0
19 -37 99 0
19 37 -99 0
-18 20 0
-18 -33 0
18 -20 33 0
-17 -20 33 0
-17 20 -33 0
17 20 33 0
17 -20 -33 0
-16 18 0
-16 -31 0
16 -18 31 0
-15 -18 31 0
-15 18 -31 0
15 18 31 0
15 -18 -31 0
-14 16 0
-14 -29 0
14 -16 29 0
-13 -16 29 0
-13 16 -29 0
13 16 29 0
13 -16 -29 0
-12 14 0
-12 -27 0
12 -14 27 0
-11 -14 27 0
-11 14 -27 0
11 14 27 0
11 -14 -27 0
-10 12 0
-10 -25 0
10 -12 25 0
-9 -12 25 0
-9 12 -25 0
9 12 25 0
9 -12 -25 0
-8 10 0
-8 -23 0
8 -10 23 0
-7 -10 23 0
-7 10 -23 0
7 10 23 0
7 -10 -23 0
-6 8 0
-6 -21 0
6 -8 21 0
-5 -8 21 0
-5 8 -21 0
5 8 21 0
5 -8 -21 0
-4 6 0
-4 -22 0
4 -6 22 0
-3 -6 22 0
-3 6 -22 0
3 6 22 0
3 -6 -22 0
-2 48 0
-2 37 0
2 -37 -48 0
-37 -48 0
37 48 0
-46 54 -99 0
-2 -46 54 0
-2 54 -99 0
46 -54 99 0
2 46 -54 0
2 -54 99 0
-46 54 0
54 -99 0
-2 54 0
-2 -46 -99 0
-33 -44 61 0
-44 -54 61 0
-33 -54 61 0
33 44 -61 0
44 54 -61 0
33 54 -61 0
44 -61 0
33 -61 0
54 -61 0
33 44 54 0
-31 -42 68 0
-42 -61 68 0
-31 -61 68 0
31 42 -68 0
42 61 -68 0
31 61 -68 0
42 -68 0
31 -68 0
61 -68 0
31 42 61 0
-29 -40 78 0
-40 -68 78 0
-29 -68 78 0
29 40 -78 0
40 68 -78 0
29 68 -78 0
40 -78 0
29 -78 0
68 -78 0
29 40 68 0
-27 -38 84 0
-38 -78 84 0
-27 -78 84 0
27 38 -84 0
38 78 -84 0
27 78 -84 0
38 -84 0
27 -84 0
78 -84 0
27 38 78 0
-25 -51 90 0
-51 -84 90 0
-25 -84 90 0
25 51 -90 0
51 84 -90 0
25 84 -90 0
-51 90 0
-25 90 0
-84 90 0
-25 -51 -84 0
-23 -49 96 0
-49 -90 96 0
-23 -90 96 0
23 49 -96 0
49 90 -96 0
23 90 -96 0
-49 96 0
-23 96 0
-90 96 0
-23 -49 -90 0
-1 21 0
-1 96 0
1 -21 -96 0
-21 96 0
21 -96 0
-1 -22 0
1 -22 0
-1 22 0
